NAME : gr96.tsp
TYPE : TOUR
DIMENSION : 96
TOUR_LENGTH : 541.3418404681661
TOUR_SECTION
1
29
30
31
32
36
37
38
35
34
39
40
41
42
43
49
50
52
51
55
53
48
47
46
45
44
33
11
4
2
3
5
6
8
7
9
10
12
13
14
15
16
17
20
18
19
21
22
23
25
24
26
28
27
65
96
94
95
93
92
78
88
89
90
87
86
85
84
74
73
71
72
75
77
76
68
67
66
64
63
62
61
60
54
58
59
56
57
69
70
82
81
83
91
80
79
-1
